# AMPL MODEL: ./res/solid.ampl

# Timestamp: 17 February 2025, 10:01:15 AM

param MAXWORK := 32;

param:
TNAME: TWORK :=
't1' 1600
't10' 800
't11' 800
't12' 800
't13' 800
't14' 800
't15' 800
't16' 800
't17' 800
't18' 800
't19' 800
't2' 1680
't20' 800
't21' 800
't3' 1720
't4' 1760
't5' 800
't6' 800
't7' 800
't8' 800
't9' 800;

set TSCOPE['t1'] :=
1 2 3 4 5 8 9 11 12 15 16 17 18 19 22 23 24 25 26 29 30 31 32 33 36 37 38 39 40 43 44 45 46 47 50 51 52 53 54 57 58 59 60 61 64 65 66 67 68 71
72 73 74 75 78 79 80 81 82 85 86 87 88 89 92 93 94 95 96 99 100 101 102 103 106 107 108
;

set TSCOPE['t10'] :=
1 2 3 4 5 8 9 11 12 15 16 17 18 19 22 23 24 25 26 29 30 31 32 33 36 37 38 39 40 43 44 45 46 47 50 51 52 53 54 57 58 59 60 61 64 65 66 67 68 71
72 73 74 75 78 79 80 81 82 85 86 87 88 89 92 93 94 95 96 99 100 101 102 103 106 107 108
;

set TSCOPE['t11'] :=
1 2 3 4 5 8 9 11 12 15 16 17 18 19 22 23 24 25 26 29 30 31 32 33 36 37 38 39 40 43 44 45 46 47 50 51 52 53 54 57 58 59 60 61 64 65 66 67 68 71
72 73 74 75
;

set TSCOPE['t12'] :=
1 2 3 4 5 8 9 11 12 15 16 17 18 19 22 23 24 25 26 29 30 31 32 33 36 37 38 39 40 43 44 45 46 47 50 51 52 53 54 57 58 59 60 61 64 65 66 67 68 71
72 73 74 75 78 79 80 81 82 85 86 87 88 89 92 93 94 95 96 99 100 101 102 103 106 107 108
;

set TSCOPE['t13'] :=
1 2 3 4 5 8 9 11 12 15 16 17 18 19 22 23 24 25 26 29 30 31 32 33 36 37 38 39 40 43 44 45 46 47 50 51 52 53 54 57 58 59 60 61 64 65 66 67 68 71
72 73 74 75
;

set TSCOPE['t14'] :=
1 2 3 4 5 8 9 11 12 15 16 17 18 19 22 23 24 25 26 29 30 31 32 33 36 37 38 39 40 43 44 45 46 47 50 51 52 53 54 57 58 59 60 61 64 65 66 67 68 71
72 73 74 75 78 79 80 81 82 85 86 87 88 89 92 93 94 95 96 99 100 101 102 103 106 107 108
;

set TSCOPE['t15'] :=
1 2 3 4 5 8 9 11 12 15 16 17 18 19 22 23 24 25 26 29 30 31 32 33 36 37 38 39 40 43 44 45 46 47 50 51 52 53 54 57 58 59 60 61 64 65 66 67 68 71
72 73 74 75 78 79 80 81 82 85 86 87 88 89 92 93 94 95 96 99 100 101 102 103 106 107 108 109 110 113 114 115 116 117 120 121 122 123 124 127 128 129 130 131 134 135 136 137 138
;

set TSCOPE['t16'] :=
1 2 3 4 5 8 9 11 12 15 16 17 18 19 22 23 24 25 26 29 30 31 32 33 36 37 38 39 40 43 44 45 46 47 50 51 52 53 54 57 58 59 60 61 64 65 66 67 68 71
72 73 74 75
;

set TSCOPE['t17'] :=
1 2 3 4 5 8 9 11 12 15 16 17 18 19 22 23 24 25 26 29 30 31 32 33 36 37 38 39 40 43 44 45 46 47 50 51 52 53 54 57 58 59 60 61 64 65 66 67 68 71
72 73 74 75 78 79 80 81 82 85 86 87 88 89 92 93 94 95 96 99 100 101 102 103 106 107 108
;

set TSCOPE['t18'] :=
1 2 3 4 5 8 9 11 12 15 16 17 18 19 22 23 24 25 26 29 30 31 32 33 36 37 38 39 40 43 44 45 46 47 50 51 52 53 54 57 58 59 60 61 64 65 66 67 68 71
72 73 74 75 78 79 80 81 82 85 86 87 88 89 92 93 94 95 96 99 100 101 102 103 106 107 108 109 110 113 114 115 116 117 120 121 122 123 124 127 128 129 130 131 134 135 136 137 138
;

set TSCOPE['t19'] :=
1 2 3 4 5 8 9 11 12 15 16 17 18 19 22 23 24 25 26 29 30 31 32 33 36 37 38 39 40 43 44 45 46 47 50 51 52 53 54 57 58 59 60 61 64 65 66 67 68 71
72 73 74 75
;

set TSCOPE['t2'] :=
2 3 4 5 8 9 11 12 15 16 17 18 19 22 23 24 25 26 29 30 31 32 33 36 37 38 39 40 43 44 45 46 47 50 51 52 53 54 57 58 59 60 61 64 65 66 67 68 71 72
73 74 75 78 79 80 81 82 85 86 87 88 89 92 93 94 95 96 99 100 101 102 103 106 107 108
;

set TSCOPE['t20'] :=
1 2 3 4 5 8 9 11 12 15 16 17 18 19 22 23 24 25 26 29 30 31 32 33 36 37 38 39 40 43 44 45 46 47 50 51 52 53 54 57 58 59 60 61 64 65 66 67 68 71
72 73 74 75 78 79 80 81 82 85 86 87 88 89 92 93 94 95 96 99 100 101 102 103 106 107 108
;

set TSCOPE['t21'] :=
1 2 3 4 5 8 9 11 12 15 16 17 18 19 22 23 24 25 26 29 30 31 32 33 36 37 38 39 40 43 44 45 46 47 50 51 52 53 54 57 58 59 60 61 64 65 66 67 68 71
72 73 74 75 78 79 80 81 82 85 86 87 88 89 92 93 94 95 96 99 100 101 102 103 106 107 108 109 110 113 114 115 116 117 120 121 122 123 124 127 128 129 130 131 134 135 136 137 138
;

set TSCOPE['t3'] :=
3 4 5 8 9 11 12 15 16 17 18 19 22 23 24 25 26 29 30 31 32 33 36 37 38 39 40 43 44 45 46 47 50 51 52 53 54 57 58 59 60 61 64 65 66 67 68 71 72 73
74 75 78 79 80 81 82 85 86 87 88 89 92 93 94 95 96 99 100 101 102 103 106 107 108
;

set TSCOPE['t4'] :=
4 5 8 9 11 12 15 16 17 18 19 22 23 24 25 26 29 30 31 32 33 36 37 38 39 40 43 44 45 46 47 50 51 52 53 54 57 58 59 60 61 64 65 66 67 68 71 72 73 74
75 78 79 80 81 82 85 86 87 88 89 92 93 94 95 96 99 100 101 102 103 106 107 108
;

set TSCOPE['t5'] :=
1 2 3 4 5 8 9 11 12 15 16 17 18 19 22 23 24 25 26 29 30 31 32 33 36 37 38 39 40 43 44 45 46 47 50 51 52 53 54 57 58 59 60 61 64 65 66 67 68 71
72 73 74 75
;

set TSCOPE['t6'] :=
1 2 3 4 5 8 9 11 12 15 16 17 18 19 22 23 24 25 26 29 30 31 32 33 36 37 38 39 40 43 44 45 46 47 50 51 52 53 54 57 58 59 60 61 64 65 66 67 68 71
72 73 74 75 78 79 80 81 82 85 86 87 88 89 92 93 94 95 96 99 100 101 102 103 106 107 108
;

set TSCOPE['t7'] :=
1 2 3 4 5 8 9 11 12 15 16 17 18 19 22 23 24 25 26 29 30 31 32 33 36 37 38 39 40 43 44 45 46 47 50 51 52 53 54 57 58 59 60 61 64 65 66 67 68 71
72 73 74 75
;

set TSCOPE['t8'] :=
1 2 3 4 5 8 9 11 12 15 16 17 18 19 22 23 24 25 26 29 30 31 32 33 36 37 38 39 40 43 44 45 46 47 50 51 52 53 54 57 58 59 60 61 64 65 66 67 68 71
72 73 74 75 78 79 80 81 82 85 86 87 88 89 92 93 94 95 96 99 100 101 102 103 106 107 108
;

set TSCOPE['t9'] :=
1 2 3 4 5 8 9 11 12 15 16 17 18 19 22 23 24 25 26 29 30 31 32 33 36 37 38 39 40 43 44 45 46 47 50 51 52 53 54 57 58 59 60 61 64 65 66 67 68 71
72 73 74 75
;

set ENAME :=
'Alojzy'
'Barłomiej'
'Cezary'
'Dariusz'
'Eugeniusz'
'Franciszek'
'Gustaw'
'Hubert'
'Ignacy'
'Jarosław'
'Paweł';

set ASSIGN :=
('Alojzy',*)
't1'
('Barłomiej',*)
't2'
('Cezary',*)
't3'
('Dariusz',*)
't4'
('Eugeniusz',*)
't5'
't6'
('Franciszek',*)
't7'
't8'
('Gustaw',*)
't10'
't9'
('Hubert',*)
't11'
't12'
('Ignacy',*)
't13'
't14'
't15'
't18'
('Jarosław',*)
't16'
't17'
't18'
('Paweł',*)
't18'
't19'
't20'
't21';

param:
XBID: XBEXPERT XBTASK XBS XBE XBL XBU :=
1 'Barłomiej' 't2' 2 12 20 24
2 'Cezary' 't3' 3 5 16 20
3 'Cezary' 't3' 8 12 8 12;

param:
EBID: EBEXPERT EBS EBE EBL EBU :=
1 'Alojzy' 1 48 0 20
2 'Alojzy' 49 76 0 28;

param:
PNAME: PERS PERE :=
'25.Jan' 1 31
'25.Feb' 32 60
'25.Mar' 61 91
'25.Apr' 92 120
'25.May' 121 154;

param:
EXPPER: PBL PBU :=
['Alojzy',*]
'25.Apr' 0 800
'25.Feb' 0 800
'25.Jan' 0 800
'25.Mar' 0 800
'25.May' 0 800
['Barłomiej',*]
'25.Jan' 0 800
['Cezary',*]
'25.Jan' 0 800
['Dariusz',*]
'25.Jan' 0 800
['Eugeniusz',*]
'25.Jan' 0 800
['Franciszek',*]
'25.Jan' 0 800
['Gustaw',*]
'25.Jan' 0 800
['Hubert',*]
'25.Jan' 0 800
['Ignacy',*]
'25.Jan' 0 800
['Jarosław',*]
'25.Jan' 0 800
['Paweł',*]
'25.Apr' 0 800
'25.Feb' 0 800
'25.Jan' 0 800
'25.Mar' 0 800
'25.May' 0 800;

